\Generated by Cardinal Operations

Maximize
   1523 x_('C','B')18:30_f + 443.91 x_('C','B')18:30_l 
   + 1475.99 x_('B','A')15:40_f + 444.2 x_('B','A')15:40_l 
Subject To
 capacity_constraint_('C','B')18:30: 1.2 x_('C','B')18:30_f 
   + x_('C','B')18:30_l <= 187
 balance_constraint_('C','B')18:30: 1.72 x_('C','B')18:30_0 
   + 0.97 x_('C','B')18:30_f + 0.97 x_('C','B')18:30_l <= 16.95
 scale_constraint_('C','B')18:30_f: 3.126 x_('C','B')18:30_0 
   - 1.2 x_('C','B')18:30_f >= 0
 scale_constraint_('C','B')18:30_l: 1.631 x_('C','B')18:30_0 
   - 1.2 x_('C','B')18:30_l >= 0
 capacity_constraint_('B','A')15:40: 1.2 x_('B','A')15:40_f 
   + x_('B','A')15:40_l <= 187
 balance_constraint_('B','A')15:40: 3.7 x_('B','A')15:40_0 
   + 0.9 x_('B','A')15:40_f + 0.9 x_('B','A')15:40_l <= 167.42
 scale_constraint_('B','A')15:40_f: 3.079 x_('B','A')15:40_0 
   - 2 x_('B','A')15:40_f >= 0
 scale_constraint_('B','A')15:40_l: 1.652 x_('B','A')15:40_0 
   - 2 x_('B','A')15:40_l >= 0
END

